param n := 120;
param c := 3000
param : V : p w :=
   0	   7	 432
   1	  72	 265
   2	   4	 303
   3	  39	 365
   4	  18	 282
   5	   6	 353
   6	  35	 448
   7	  64	 260
   8	  39	 292
   9	  75	 496
  10	  25	 250
  11	  35	 254
  12	  88	 363
  13	  96	 265
  14	   4	 372
  15	  30	 372
  16	  20	 298
  17	  96	 330
  18	   2	 491
  19	  26	 253
  20	  97	 256
  21	  32	 429
  22	   2	 260
  23	  95	 311
  24	 100	 392
  25	  37	 268
  26	  47	 340
  27	  22	 433
  28	  27	 251
  29	  39	 316
  30	  40	 406
  31	  18	 259
  32	  11	 335
  33	   8	 365
  34	  43	 252
  35	  80	 383
  36	  74	 393
  37	  83	 271
  38	  33	 336
  39	  77	 380
  40	  39	 303
  41	  80	 317
  42	  52	 381
  43	  83	 295
  44	  23	 324
  45	  21	 424
  46	   7	 268
  47	  82	 308
  48	  89	 498
  49	  70	 250
  50	  44	 252
  51	  30	 414
  52	  98	 255
  53	  58	 331
  54	  43	 421
  55	  23	 268
  56	  89	 311
  57	  56	 491
  58	  30	 250
  59	  14	 259
  60	  99	 493
  61	  11	 250
  62	   7	 257
  63	  82	 368
  64	  49	 265
  65	  45	 367
  66	  48	 408
  67	  95	 289
  68	  52	 303
  69	  25	 444
  70	  71	 262
  71	  83	 294
  72	  59	 403
  73	  34	 259
  74	  56	 338
  75	  48	 485
  76	  26	 253
  77	  28	 262
  78	   9	 465
  79	  73	 260
  80	   9	 275
  81	  15	 421
  82	  65	 254
  83	  23	 325
  84	  94	 351
  85	  14	 296
  86	  94	 353
  87	  84	 396
  88	  59	 276
  89	 100	 328
  90	  11	 389
  91	  85	 295
  92	  75	 316
  93	  51	 483
  94	  98	 251
  95	  10	 266
  96	  89	 398
  97	  81	 289
  98	  55	 313
  99	  48	 363
 100	  62	 308
 101	  37	 329
 102	  97	 399
 103	   5	 279
 104	  54	 322
 105	  42	 389
 106	  75	 283
 107	  22	 328
 108	  72	 402
 109	  53	 251
 110	  15	 347
 111	  40	 357
 112	  46	 280
 113	   1	 363
 114	  29	 427
 115	  40	 277
 116	  88	 296
 117	  85	 375
 118	  11	 259
 119	  22	 366
;

set E :=
   0	   3
   0	   6
   0	  12
   0	  23
   0	  34
   0	  37
   0	  40
   0	  54
   0	  59
   0	  65
   0	  67
   0	  71
   0	  79
   0	  90
   0	  92
   0	  94
   0	  98
   0	 100
   0	 101
   0	 109
   0	 111
   0	 112
   0	 113
   0	 116
   0	 117
   1	   7
   1	  12
   1	  23
   1	  29
   1	  40
   1	  46
   1	  50
   1	  59
   1	  62
   1	  65
   1	  74
   1	  76
   1	  77
   1	  80
   1	  81
   1	  85
   1	  91
   1	  92
   1	 111
   1	 114
   1	 117
   2	   4
   2	   6
   2	   9
   2	  23
   2	  24
   2	  36
   2	  42
   2	  45
   2	  56
   2	  57
   2	  58
   2	  65
   2	  72
   2	  76
   2	  87
   2	  92
   2	  96
   2	 101
   2	 102
   2	 104
   2	 107
   2	 114
   2	 116
   2	 117
   3	   5
   3	  12
   3	  13
   3	  16
   3	  17
   3	  19
   3	  21
   3	  23
   3	  27
   3	  30
   3	  33
   3	  41
   3	  43
   3	  45
   3	  46
   3	  48
   3	  49
   3	  50
   3	  51
   3	  60
   3	  61
   3	  75
   3	  80
   3	  86
   3	  89
   3	  92
   3	 106
   3	 107
   3	 114
   3	 116
   4	   5
   4	  32
   4	  34
   4	  36
   4	  37
   4	  39
   4	  40
   4	  43
   4	  46
   4	  56
   4	  66
   4	  69
   4	  71
   4	  76
   4	  78
   4	  80
   4	  82
   4	  83
   4	  87
   4	  89
   4	 103
   4	 104
   4	 105
   4	 106
   4	 107
   5	   9
   5	  10
   5	  19
   5	  30
   5	  35
   5	  39
   5	  41
   5	  42
   5	  47
   5	  50
   5	  57
   5	  64
   5	  77
   5	  80
   5	  81
   5	  83
   5	  87
   5	  89
   5	  93
   5	  97
   5	 104
   5	 115
   5	 117
   6	   8
   6	  10
   6	  12
   6	  20
   6	  24
   6	  29
   6	  38
   6	  43
   6	  45
   6	  48
   6	  54
   6	  59
   6	  70
   6	  74
   6	  77
   6	  80
   6	  82
   6	  91
   6	  95
   6	  98
   6	 102
   6	 113
   6	 115
   6	 118
   7	  10
   7	  18
   7	  19
   7	  21
   7	  27
   7	  29
   7	  62
   7	  64
   7	  65
   7	  66
   7	  76
   7	  83
   7	  93
   7	  94
   7	  99
   7	 103
   7	 104
   7	 105
   7	 109
   7	 110
   7	 111
   7	 114
   7	 117
   8	   9
   8	  16
   8	  18
   8	  22
   8	  24
   8	  31
   8	  32
   8	  34
   8	  45
   8	  47
   8	  49
   8	  68
   8	  81
   8	  82
   8	  88
   8	  91
   8	  92
   8	 103
   8	 108
   8	 111
   8	 112
   8	 115
   8	 117
   8	 119
   9	  10
   9	  19
   9	  20
   9	  43
   9	  45
   9	  54
   9	  59
   9	  61
   9	  64
   9	  69
   9	  74
   9	  81
   9	  82
   9	  92
   9	  97
   9	  98
   9	 102
   9	 110
   9	 112
   9	 113
   9	 115
   9	 118
  10	  12
  10	  15
  10	  19
  10	  22
  10	  23
  10	  28
  10	  31
  10	  39
  10	  41
  10	  42
  10	  45
  10	  50
  10	  62
  10	  65
  10	  87
  10	  92
  10	  93
  10	 103
  11	  12
  11	  13
  11	  20
  11	  21
  11	  22
  11	  23
  11	  25
  11	  33
  11	  34
  11	  35
  11	  41
  11	  42
  11	  45
  11	  47
  11	  49
  11	  52
  11	  56
  11	  65
  11	  74
  11	  79
  11	  83
  11	  91
  11	  92
  11	  98
  11	 100
  11	 109
  11	 118
  11	 119
  12	  18
  12	  29
  12	  30
  12	  32
  12	  33
  12	  46
  12	  51
  12	  53
  12	  56
  12	  63
  12	  77
  12	  82
  12	  96
  12	  97
  12	 100
  12	 101
  12	 105
  12	 109
  12	 115
  12	 116
  12	 118
  13	  18
  13	  22
  13	  23
  13	  27
  13	  28
  13	  33
  13	  38
  13	  39
  13	  42
  13	  46
  13	  50
  13	  52
  13	  53
  13	  58
  13	  65
  13	  88
  13	  95
  13	  97
  13	 103
  13	 111
  13	 116
  14	  15
  14	  21
  14	  27
  14	  41
  14	  45
  14	  60
  14	  61
  14	  63
  14	  67
  14	  69
  14	  70
  14	  91
  14	  97
  14	 104
  14	 107
  14	 111
  14	 115
  15	  26
  15	  30
  15	  31
  15	  32
  15	  35
  15	  36
  15	  39
  15	  40
  15	  42
  15	  49
  15	  56
  15	  60
  15	  62
  15	  64
  15	  66
  15	  68
  15	  75
  15	  77
  15	  85
  15	  95
  15	  96
  15	  98
  15	 103
  15	 106
  15	 112
  15	 117
  16	  18
  16	  28
  16	  35
  16	  40
  16	  41
  16	  55
  16	  59
  16	  73
  16	  74
  16	  76
  16	  78
  16	  81
  16	  90
  16	  93
  16	  96
  16	  99
  16	 104
  16	 107
  16	 114
  16	 115
  17	  39
  17	  47
  17	  51
  17	  54
  17	  56
  17	  61
  17	  64
  17	  67
  17	  68
  17	  81
  17	  83
  17	  93
  17	 103
  17	 104
  17	 109
  17	 118
  18	  22
  18	  32
  18	  35
  18	  36
  18	  41
  18	  53
  18	  59
  18	  64
  18	  79
  18	  92
  18	  94
  18	 100
  18	 105
  18	 112
  18	 114
  18	 117
  19	  21
  19	  22
  19	  26
  19	  27
  19	  32
  19	  33
  19	  39
  19	  41
  19	  49
  19	  55
  19	  58
  19	  59
  19	  74
  19	  77
  19	  81
  19	  88
  19	  92
  19	  94
  19	 100
  19	 102
  19	 110
  19	 115
  20	  25
  20	  32
  20	  35
  20	  40
  20	  44
  20	  47
  20	  48
  20	  49
  20	  50
  20	  51
  20	  57
  20	  65
  20	  70
  20	  73
  20	  74
  20	  82
  20	  84
  20	  86
  20	  87
  20	  88
  20	 101
  20	 104
  20	 115
  20	 116
  20	 119
  21	  25
  21	  28
  21	  32
  21	  34
  21	  39
  21	  42
  21	  44
  21	  48
  21	  53
  21	  57
  21	  69
  21	  83
  21	  90
  21	  94
  21	  96
  21	 100
  21	 106
  21	 109
  21	 111
  22	  24
  22	  27
  22	  30
  22	  34
  22	  36
  22	  52
  22	  55
  22	  59
  22	  60
  22	  65
  22	  72
  22	  85
  22	  89
  22	  92
  22	  93
  22	  95
  22	  96
  22	  98
  22	 101
  22	 103
  22	 109
  22	 111
  22	 112
  23	  24
  23	  32
  23	  36
  23	  38
  23	  40
  23	  41
  23	  42
  23	  45
  23	  50
  23	  52
  23	  53
  23	  59
  23	  61
  23	  63
  23	  64
  23	  67
  23	  71
  23	  76
  23	  81
  23	  82
  23	  90
  23	  92
  23	 101
  23	 105
  23	 108
  23	 109
  23	 110
  23	 112
  23	 117
  23	 119
  24	  35
  24	  47
  24	  56
  24	  69
  24	  79
  24	  82
  24	  83
  24	  92
  24	  93
  24	 100
  24	 105
  24	 108
  24	 113
  24	 118
  25	  28
  25	  30
  25	  33
  25	  37
  25	  45
  25	  47
  25	  49
  25	  50
  25	  56
  25	  57
  25	  62
  25	  75
  25	  76
  25	  84
  25	  89
  25	  91
  25	  96
  25	  97
  25	  98
  25	  99
  25	 105
  26	  44
  26	  45
  26	  46
  26	  52
  26	  53
  26	  54
  26	  56
  26	  83
  26	  85
  26	  91
  26	  96
  26	  99
  26	 108
  27	  28
  27	  30
  27	  38
  27	  39
  27	  50
  27	  56
  27	  57
  27	  59
  27	  62
  27	  85
  27	  93
  27	 103
  27	 116
  27	 117
  28	  29
  28	  32
  28	  39
  28	  49
  28	  50
  28	  55
  28	  57
  28	  58
  28	  61
  28	  66
  28	  69
  28	  74
  28	  78
  28	  93
  28	  98
  28	 107
  28	 110
  28	 116
  28	 118
  29	  32
  29	  38
  29	  45
  29	  56
  29	  57
  29	  59
  29	  60
  29	  68
  29	  71
  29	  78
  29	  83
  29	 100
  29	 109
  29	 114
  30	  31
  30	  40
  30	  45
  30	  50
  30	  53
  30	  58
  30	  63
  30	  72
  30	  73
  30	  74
  30	  80
  30	  81
  30	  82
  30	  88
  30	  90
  30	  96
  30	  99
  30	 119
  31	  35
  31	  48
  31	  58
  31	  62
  31	  64
  31	  70
  31	  81
  31	  83
  31	  84
  31	  99
  31	 105
  31	 106
  31	 107
  31	 108
  31	 111
  31	 112
  31	 118
  32	  39
  32	  40
  32	  49
  32	  50
  32	  51
  32	  55
  32	  78
  32	  91
  32	  93
  32	  95
  32	  98
  32	  99
  32	 118
  33	  43
  33	  45
  33	  46
  33	  47
  33	  52
  33	  55
  33	  58
  33	  74
  33	  84
  33	  86
  33	  89
  33	  90
  33	  92
  33	 104
  33	 109
  33	 110
  33	 116
  33	 118
  34	  43
  34	  45
  34	  48
  34	  52
  34	  60
  34	  63
  34	  71
  34	  77
  34	  79
  34	  83
  34	  87
  34	  92
  34	  93
  34	  99
  34	 102
  34	 112
  34	 116
  35	  48
  35	  51
  35	  55
  35	  56
  35	  57
  35	  58
  35	  62
  35	  66
  35	  71
  35	  84
  35	  89
  35	 100
  35	 105
  35	 106
  35	 109
  35	 112
  36	  41
  36	  48
  36	  50
  36	  54
  36	  63
  36	  64
  36	  74
  36	  84
  36	 103
  36	 105
  36	 107
  36	 108
  36	 115
  36	 117
  36	 119
  37	  39
  37	  40
  37	  45
  37	  49
  37	  53
  37	  54
  37	  56
  37	  57
  37	  61
  37	  62
  37	  71
  37	  72
  37	  73
  37	  80
  37	  81
  37	  88
  37	  98
  37	 104
  37	 105
  37	 111
  37	 114
  37	 116
  37	 119
  38	  49
  38	  56
  38	  59
  38	  64
  38	  65
  38	  66
  38	  67
  38	  95
  38	 100
  38	 103
  38	 107
  38	 109
  38	 114
  39	  50
  39	  52
  39	  56
  39	  57
  39	  67
  39	  72
  39	  79
  39	  81
  39	  90
  39	  95
  39	 101
  39	 113
  39	 118
  40	  42
  40	  43
  40	  44
  40	  46
  40	  51
  40	  57
  40	  61
  40	  63
  40	  67
  40	  76
  40	  78
  40	  87
  40	  93
  40	  98
  40	 100
  40	 102
  40	 106
  40	 108
  40	 111
  40	 113
  40	 117
  40	 119
  41	  43
  41	  46
  41	  47
  41	  57
  41	  58
  41	  61
  41	  64
  41	  65
  41	  71
  41	  73
  41	  79
  41	  84
  41	  98
  41	 104
  41	 107
  41	 108
  41	 111
  41	 117
  42	  56
  42	  58
  42	  59
  42	  66
  42	  82
  42	  84
  42	  86
  42	  89
  42	  94
  42	 100
  42	 108
  43	  45
  43	  46
  43	  56
  43	  59
  43	  68
  43	  73
  43	  77
  43	  83
  43	  97
  43	 102
  43	 103
  43	 105
  43	 109
  43	 115
  44	  50
  44	  51
  44	  53
  44	  54
  44	  61
  44	  68
  44	  78
  44	  81
  44	  82
  44	  86
  44	  92
  44	  97
  44	  99
  44	 101
  44	 102
  44	 110
  44	 111
  45	  48
  45	  49
  45	  51
  45	  62
  45	  63
  45	  71
  45	  72
  45	  76
  45	  78
  45	  86
  45	  90
  45	  94
  45	  96
  45	 100
  45	 104
  45	 105
  45	 112
  45	 114
  45	 118
  46	  48
  46	  51
  46	  62
  46	  67
  46	  68
  46	  70
  46	  80
  46	  89
  46	  91
  46	  94
  46	  95
  46	 106
  46	 109
  46	 111
  46	 115
  46	 116
  46	 118
  47	  57
  47	  59
  47	  61
  47	  63
  47	  64
  47	  71
  47	  74
  47	  76
  47	  83
  47	  89
  47	  94
  47	  96
  47	 101
  47	 103
  47	 105
  47	 112
  47	 116
  48	  51
  48	  52
  48	  54
  48	  57
  48	  64
  48	  68
  48	  73
  48	  75
  48	  77
  48	  78
  48	  96
  48	  99
  48	 111
  48	 118
  49	  54
  49	  56
  49	  57
  49	  64
  49	  70
  49	  71
  49	  74
  49	  80
  49	  88
  49	  89
  49	  94
  49	  95
  49	  97
  49	 101
  49	 104
  49	 112
  49	 114
  50	  56
  50	  61
  50	  66
  50	  67
  50	  68
  50	  70
  50	  72
  50	  75
  50	  86
  50	  90
  50	 111
  50	 119
  51	  56
  51	  57
  51	  61
  51	  62
  51	  63
  51	  65
  51	  73
  51	  76
  51	  78
  51	  84
  51	  85
  51	  89
  51	  91
  51	 101
  51	 104
  51	 117
  52	  57
  52	  63
  52	  68
  52	  70
  52	  77
  52	  85
  52	  87
  52	 105
  52	 114
  53	  58
  53	  77
  53	  80
  53	  85
  53	  88
  53	  90
  53	  91
  53	  95
  53	  96
  53	 100
  53	 105
  53	 115
  53	 116
  53	 117
  53	 118
  54	  55
  54	  60
  54	  64
  54	  65
  54	  74
  54	  78
  54	  86
  54	  92
  54	  94
  54	  97
  54	 102
  54	 104
  55	  71
  55	  75
  55	  79
  55	  80
  55	  89
  55	  93
  55	  95
  55	  96
  55	  97
  55	  99
  55	 100
  55	 111
  55	 114
  55	 115
  55	 116
  56	  66
  56	  68
  56	  69
  56	  73
  56	  74
  56	  75
  56	  76
  56	  80
  56	  83
  56	  92
  56	  99
  56	 106
  56	 108
  56	 116
  57	  62
  57	  67
  57	  75
  57	  83
  57	  85
  57	  94
  57	 111
  57	 112
  57	 116
  57	 119
  58	  66
  58	  70
  58	  71
  58	  72
  58	  74
  58	  84
  58	  97
  58	 106
  58	 109
  58	 110
  58	 111
  59	  65
  59	  66
  59	  76
  59	  77
  59	  78
  59	  86
  59	  90
  59	  97
  59	  98
  59	 100
  59	 109
  59	 116
  59	 119
  60	  61
  60	  62
  60	  73
  60	  76
  60	  85
  60	  86
  60	  90
  60	  94
  60	 105
  60	 112
  60	 114
  61	  65
  61	  68
  61	  71
  61	  83
  61	  90
  61	 102
  61	 106
  61	 110
  61	 112
  61	 113
  61	 115
  61	 119
  62	  77
  62	  82
  62	  85
  62	  89
  62	  93
  62	 107
  62	 111
  62	 115
  62	 119
  63	  73
  63	  84
  63	  89
  63	  91
  63	 104
  63	 110
  63	 112
  64	  75
  64	  78
  64	  80
  64	  81
  64	  85
  64	  99
  64	 105
  64	 117
  65	  67
  65	  72
  65	  78
  65	  79
  65	  87
  65	  91
  65	  94
  65	  97
  65	  99
  65	 108
  65	 116
  65	 117
  66	  68
  66	  76
  66	  80
  66	  83
  66	  85
  66	  86
  66	  87
  66	  90
  66	  93
  66	  99
  66	 102
  66	 105
  66	 109
  67	  71
  67	  76
  67	  78
  67	  80
  67	  84
  67	  91
  67	  92
  67	  93
  67	  99
  67	 102
  67	 109
  67	 112
  68	  82
  68	  83
  68	  95
  68	  97
  68	  99
  68	 113
  68	 114
  68	 115
  68	 117
  68	 118
  69	  78
  69	  85
  69	  92
  69	  96
  69	 100
  69	 102
  69	 109
  69	 110
  69	 113
  69	 115
  69	 118
  70	  90
  70	  93
  70	 100
  70	 110
  71	  72
  71	  84
  71	  85
  71	  89
  71	 104
  71	 112
  71	 115
  72	  81
  72	  82
  72	  83
  72	  88
  72	  92
  72	 114
  72	 115
  72	 119
  73	  74
  73	  77
  73	  80
  73	  87
  73	  96
  73	 107
  73	 118
  74	  76
  74	  83
  74	  84
  74	  92
  74	  93
  74	 100
  74	 102
  74	 108
  74	 109
  74	 111
  74	 114
  74	 119
  75	  80
  75	  89
  75	  99
  75	 101
  75	 107
  75	 108
  75	 118
  76	  78
  76	  83
  76	  89
  76	  93
  76	  97
  76	  99
  76	 100
  76	 102
  76	 107
  76	 109
  76	 119
  77	  87
  77	  91
  77	  95
  77	  96
  77	 102
  77	 117
  78	  79
  78	  81
  78	  86
  78	  92
  78	  93
  78	  95
  78	 103
  78	 104
  78	 114
  78	 115
  78	 116
  79	  80
  79	  84
  79	  96
  79	  97
  79	 102
  79	 106
  79	 107
  79	 118
  79	 119
  80	  86
  80	  89
  80	  90
  80	  92
  80	  93
  80	  94
  80	 103
  80	 113
  80	 114
  80	 117
  81	  83
  81	  84
  81	  89
  81	  91
  81	  98
  81	 103
  81	 114
  81	 119
  82	  87
  82	  95
  82	 102
  82	 103
  82	 107
  82	 109
  82	 110
  82	 117
  83	  97
  83	 103
  83	 107
  83	 109
  83	 110
  83	 111
  83	 116
  83	 119
  84	  88
  84	  89
  84	  91
  84	  98
  84	 104
  84	 114
  84	 116
  85	  95
  85	  97
  85	 101
  85	 109
  85	 115
  85	 117
  86	  94
  86	  96
  86	  98
  86	 100
  86	 105
  86	 108
  86	 109
  86	 117
  86	 119
  87	 110
  88	  89
  88	 101
  88	 110
  88	 112
  88	 113
  89	  94
  89	  96
  89	 102
  89	 109
  89	 112
  90	  94
  90	  98
  90	 105
  90	 110
  90	 114
  90	 115
  90	 118
  91	  93
  91	 105
  91	 112
  91	 114
  91	 116
  92	  93
  92	  94
  92	  98
  92	 110
  93	  94
  93	  95
  93	  96
  93	  97
  93	 102
  93	 106
  93	 108
  93	 113
  93	 115
  93	 117
  94	  99
  94	 103
  94	 106
  94	 108
  94	 119
  95	  96
  95	 110
  95	 111
  95	 116
  95	 117
  96	 100
  96	 103
  96	 105
  97	 101
  97	 102
  97	 109
  97	 118
  98	 117
  98	 119
  99	 100
  99	 104
  99	 112
  99	 118
 100	 103
 101	 103
 101	 108
 101	 110
 101	 112
 101	 114
 101	 117
 102	 111
 102	 112
 102	 117
 102	 119
 103	 104
 103	 107
 103	 109
 103	 110
 103	 119
 104	 105
 104	 107
 104	 112
 104	 113
 104	 114
 104	 115
 104	 118
 104	 119
 105	 117
 106	 111
 106	 115
 106	 116
 106	 118
 107	 109
 107	 111
 107	 114
 107	 117
 108	 112
 108	 117
 109	 110
 109	 116
 111	 116
 111	 117
 112	 116
 114	 115
 114	 116
 114	 119
;
